(set-info :source  loris-7.ddns.comp.nus.edu.sg/~project/hip/) 
;Variables declarations
(declare-fun n_3993 () Int)
(declare-fun m_3992 () Int)
(declare-fun bm () Int)
(declare-fun v_int_87_3290_primed () Int)
(declare-fun am () Int)
(declare-fun a () Int)
(declare-fun b_primed () Int)
(declare-fun b () Int)
(declare-fun c_primed () Int)
(declare-fun d_primed () Int)
(declare-fun v1_primed () Int)
(declare-fun v1 () Int)
(declare-fun v2_primed () Int)
(declare-fun v2 () Int)
(declare-fun v3_primed () Int)
(declare-fun v3 () Int)
(declare-fun bn () Int)
(declare-fun an () Int)
(declare-fun cn () Int)
(declare-fun cm () Int)
(declare-fun c () Int)
(declare-fun an_3988 () Int)
(declare-fun dm () Int)
(declare-fun d () Int)
(declare-fun n () Int)
(declare-fun m () Int)
(declare-fun a_primed () Int)
;Relations declarations
;Axioms assertions
;Antecedent
(assert (= n_3993 bn))
(assert (= m_3992 bm))
(assert (<= 0 n))
(assert (<= 0 m))
(assert (= v_int_87_3290_primed n))
(assert (<= 0 an))
(assert (<= 0 am))
(assert (= n an))
(assert (= m am))
(assert (= a_primed a))
(assert (= b_primed b))
(assert (= c_primed c))
(assert (= d_primed d))
(assert (= v1_primed v1))
(assert (= v2_primed v2))
(assert (= v3_primed v3))
(assert (or (and (= an bn) (>= bn cn)) (and (= an cn) (< bn cn))))
(assert (<= (+ 0 cn) (+ bn 1)))
(assert (<= bn (+ 1 cn)))
(assert (= an_3988 an))
(assert (or (and (and (< c 1) (= cm 0)) (= cn 0)) (and (and (<= 1 cn) (<= 1 cm)) (> c 0))))
(assert (or (and (and (< d 1) (= dm 0)) (= an_3988 0)) (and (and (<= 1 an_3988) (<= 1 dm)) (> d 0))))
(assert (or (and (and (< a_primed 1) (= m 0)) (= n 0)) (and (and (<= 1 n) (<= 1 m)) (> a_primed 0))))
;Negation of Consequence
(assert (not false))
(check-sat)